(set-logic ALL)
(declare-fun seed0_T_1 () Bool)
(declare-fun seed0_T_2 () Bool)
(declare-fun seed0_T_3 () Bool)
(declare-fun seed0_T_4 () Bool)
(declare-fun seed0_var_0xINPUT_261385 () String)
(assert (and (or (= seed0_T_1 (not (= "4PH2ujcENG" seed0_var_0xINPUT_261385))) (str.contains (str.++ seed0_var_0xINPUT_261385 "mhXnvwSbjF") (str.++ seed0_var_0xINPUT_261385 "EpG7IDv9R4fBaHjX0zQA"))) (or seed0_T_1 (and (str.contains (str.++ seed0_var_0xINPUT_261385 "MJSqdl3mKYzpU") (str.++ seed0_var_0xINPUT_261385 "oskRAVL9e06DO1l")) (str.suffixof (str.++ seed0_var_0xINPUT_261385 "PGdN0Hft4z7qmMiA") (str.++ seed0_var_0xINPUT_261385 "2UzSI3Ecd5jyN")))) (or (= seed0_T_2 (not (= "" seed0_var_0xINPUT_261385))) (xor (str.prefixof (str.++ seed0_var_0xINPUT_261385 "zHQ") (str.++ seed0_var_0xINPUT_261385 "WxjEskg")) (str.suffixof (str.++ seed0_var_0xINPUT_261385 "KrmWban2JcwG") (str.++ seed0_var_0xINPUT_261385 "")))) (or seed0_T_2 (or (str.contains (str.++ seed0_var_0xINPUT_261385 "AwrLfZmaFOojd7ns9") (str.++ seed0_var_0xINPUT_261385 "GuActimgW2EIarF")) (str.suffixof (str.++ seed0_var_0xINPUT_261385 "KqPushmM80QyagCOFA2Y") (str.++ seed0_var_0xINPUT_261385 "oEUAW")))) (or (= seed0_T_3 (not (= seed0_var_0xINPUT_261385 "pVEECEXk2p"))) (or (str.suffixof (str.++ seed0_var_0xINPUT_261385 "HtkVJr8MlfCFU") (str.++ seed0_var_0xINPUT_261385 "f61h5l0baXMmvUyz8")) (str.< (str.++ seed0_var_0xINPUT_261385 "") (str.++ seed0_var_0xINPUT_261385 "vmBbw13")))) (or (= seed0_T_4 (not seed0_T_3)) (or (str.suffixof (str.++ seed0_var_0xINPUT_261385 "") (str.++ seed0_var_0xINPUT_261385 "CQdsZKE9nLcq4")) (str.prefixof (str.++ seed0_var_0xINPUT_261385 "39wTneAukRV6Qv0") (str.++ seed0_var_0xINPUT_261385 "yPZUDzO")))) (or seed0_T_4 (not (str.contains (str.++ seed0_var_0xINPUT_261385 "") (str.++ seed0_var_0xINPUT_261385 "JO5Bz"))))))
(check-sat)
(exit)